(set-info :source |printed by MathSAT|)
(declare-fun ldv_module_refcounter () (_ BitVec 32))

*:
(assert (let ((.def_23770 (= ldv_module_refcounter (_ bv1 32)))).def_23770))
(assert (let ((.def_23775 (bvslt (_ bv1 32) ldv_module_refcounter))).def_23775))

